(set-logic ALL)
(declare-const k Int)
(declare-fun %c () (_ BitVec k))
(declare-fun %b () (_ BitVec k))
(declare-fun %a () (_ BitVec k))
(assert (not (= (bvxor (bvxor %a %c) (bvand %a %b)) (bvxor (bvand (bvxor %a (bvnot (_ bv0 k))) %b) %c))))
(check-sat)